1643698800
1643727600
1643785200
1643814000
1643871600
1643900400
1643958000
1643986800
1644217200
1644246000
1644303600
1644332400
1644390000
1644418800
1644476400
1644505200
1644562800
1644591600
1644822000
1644850800
1644908400
1644937200
1644994800
1645023600
1645081200
1645110000
1645167600
1645196400
1645426800
1645455600
1645513200
1645542000
1645599600
1645628400
1645686000
1645714800
1645772400
1645801200
1646031600
1646060400
